p tw 191 4418
1 44
1 92
1 157
1 12
1 20
1 26
1 30
1 4
1 6
1 2
1 7
1 19
1 31
1 43
1 55
1 10
1 9
1 8
1 5
1 182
1 169
1 145
1 133
1 121
1 109
1 36
1 47
1 104
1 79
1 67
1 191
1 190
1 189
1 188
1 187
1 186
1 185
1 184
1 163
1 160
1 138
1 38
1 37
1 34
1 165
1 147
1 176
1 155
1 154
1 153
1 152
1 151
1 164
1 110
1 156
1 177
1 150
1 149
1 146
1 144
1 143
1 141
1 142
1 102
1 91
1 80
1 69
1 58
1 25
1 14
1 3
1 181
1 134
1 168
1 131
1 130
1 129
1 128
1 127
1 136
1 135
1 179
1 140
1 139
1 158
1 132
1 167
1 105
1 108
1 107
1 106
1 180
1 124
1 123
1 122
1 120
1 119
1 118
1 117
1 116
1 183
1 114
1 113
1 112
1 111
1 162
1 148
1 166
1 126
1 115
1 103
1 100
1 99
1 98
1 178
1 159
1 41
1 40
1 125
1 49
1 48
1 46
1 174
1 95
1 94
1 93
1 90
1 89
1 87
1 86
1 85
1 84
1 83
1 82
1 81
1 77
1 175
1 75
1 74
1 73
1 71
1 70
1 68
1 66
1 65
1 64
1 62
1 61
1 60
1 59
1 57
1 56
1 54
1 52
1 51
1 161
1 28
1 27
1 24
1 23
1 22
1 172
1 171
1 21
1 18
1 17
1 16
1 15
1 13
1 11
1 173
1 33
1 32
1 29
1 35
2 55
2 43
2 31
2 19
2 7
7 55
7 43
7 31
7 19
19 55
19 43
19 31
31 55
31 43
43 55
67 79
67 103
67 100
67 99
67 98
67 95
67 94
67 93
67 90
67 89
67 87
67 86
67 85
67 84
67 83
67 82
67 81
67 77
67 75
67 74
67 73
67 71
67 70
67 68
79 103
79 100
79 99
79 98
79 95
79 94
79 93
79 90
79 89
79 87
79 86
79 85
79 84
79 83
79 82
79 81
104 10
104 9
104 8
104 5
104 182
104 169
104 145
104 133
104 121
104 109
104 36
104 38
104 37
104 34
104 155
104 154
104 153
104 152
104 151
104 150
104 149
104 146
104 144
104 143
104 141
104 102
104 91
104 80
104 69
104 58
104 25
104 14
104 3
104 181
104 134
104 131
104 130
104 129
104 128
104 127
104 136
104 135
104 140
104 139
104 105
104 108
104 107
104 106
104 124
104 123
104 122
104 120
104 119
104 118
104 117
104 116
104 114
104 113
104 112
104 111
104 148
104 126
104 115
104 103
104 100
104 99
104 98
104 159
104 41
104 40
104 49
104 48
104 46
104 95
104 94
104 93
104 90
104 89
104 87
104 86
104 85
104 84
104 83
104 82
104 81
104 77
104 75
104 74
104 73
104 71
104 70
104 68
104 66
104 65
104 64
104 62
104 61
104 60
104 59
104 57
104 56
104 54
104 52
104 51
104 28
104 27
104 24
104 23
104 22
104 21
104 18
104 17
104 16
104 15
104 13
104 11
104 33
104 32
104 29
36 10
36 9
36 8
36 5
36 182
36 169
36 145
36 133
36 121
36 109
36 38
36 37
36 34
36 155
36 154
36 153
36 152
36 151
36 150
36 149
36 146
36 144
36 143
36 141
36 102
36 91
36 80
36 69
36 58
36 134
36 131
36 130
36 129
36 128
36 127
36 136
36 135
36 140
36 139
36 105
36 108
36 107
36 106
36 124
36 123
36 122
36 120
36 119
36 118
36 117
36 116
36 114
36 113
36 112
36 111
36 103
36 100
36 99
36 98
36 41
36 40
36 49
36 48
36 46
36 95
36 94
36 93
36 90
36 89
36 87
36 86
36 85
36 84
36 83
36 82
36 81
36 77
36 75
36 74
36 73
36 71
36 70
36 68
36 66
36 65
36 64
36 62
36 61
36 60
36 59
36 57
36 56
36 54
36 52
36 51
36 28
36 27
36 24
36 23
36 22
36 21
36 18
36 17
36 16
36 15
36 13
36 11
36 33
36 32
36 29
109 10
109 9
109 8
109 5
109 182
109 169
109 145
109 133
109 121
109 38
109 37
109 34
109 155
109 154
109 153
109 152
109 151
109 150
109 149
109 146
109 144
109 143
109 141
109 134
109 131
109 130
109 129
109 128
109 127
109 136
109 135
109 140
109 139
109 124
109 123
109 122
109 120
109 119
109 118
109 117
109 116
109 114
109 113
109 112
109 111
109 103
109 100
109 99
109 98
109 41
109 40
109 49
109 48
109 46
109 95
109 94
109 93
109 90
109 89
109 87
109 86
109 85
109 84
109 83
109 82
109 81
109 77
109 75
109 74
109 73
109 71
109 70
109 68
109 66
109 65
109 64
109 62
109 61
109 60
109 59
109 57
109 56
109 54
109 52
109 51
109 28
109 27
109 24
109 23
109 22
109 21
109 18
109 17
109 16
109 15
109 13
109 11
109 33
109 32
109 29
121 10
121 9
121 8
121 5
121 182
121 169
121 145
121 133
121 38
121 37
121 34
121 155
121 154
121 153
121 152
121 151
121 150
121 149
121 146
121 144
121 143
121 141
121 134
121 131
121 130
121 129
121 128
121 127
121 136
121 135
121 140
121 139
121 124
121 123
121 122
121 103
121 100
121 99
121 98
121 41
121 40
121 49
121 48
121 46
121 95
121 94
121 93
121 90
121 89
121 87
121 86
121 85
121 84
121 83
121 82
121 81
121 77
121 75
121 74
121 73
121 71
121 70
121 68
121 66
121 65
121 64
121 62
121 61
121 60
121 59
121 57
121 56
121 54
121 52
121 51
121 28
121 27
121 24
121 23
121 22
121 21
121 18
121 17
121 16
121 15
121 13
121 11
121 33
121 32
121 29
133 10
133 9
133 8
133 5
133 182
133 169
133 145
133 38
133 37
133 34
133 155
133 154
133 153
133 152
133 151
133 150
133 149
133 146
133 144
133 143
133 141
133 134
133 136
133 135
133 140
133 139
133 103
133 100
133 99
133 98
133 41
133 40
133 49
133 48
133 46
133 95
133 94
133 93
133 90
133 89
133 87
133 86
133 85
133 84
133 83
133 82
133 81
133 77
133 75
133 74
133 73
133 71
133 70
133 68
133 66
133 65
133 64
133 62
133 61
133 60
133 59
133 57
133 56
133 54
133 52
133 51
133 28
133 27
133 24
133 23
133 22
133 21
133 18
133 17
133 16
133 15
133 13
133 11
133 33
133 32
133 29
145 10
145 9
145 8
145 5
145 182
145 169
145 38
145 37
145 34
145 155
145 154
145 153
145 152
145 151
145 150
145 149
145 146
145 103
145 100
145 99
145 98
145 41
145 40
145 49
145 48
145 46
145 95
145 94
145 93
145 90
145 89
145 87
145 86
145 85
145 84
145 83
145 82
145 81
145 77
145 75
145 74
145 73
145 71
145 70
145 68
145 66
145 65
145 64
145 62
145 61
145 60
145 59
145 57
145 56
145 54
145 52
145 51
145 28
145 27
145 24
145 23
145 22
145 21
145 18
145 17
145 16
145 15
145 13
145 11
145 33
145 32
145 29
157 12
157 20
157 26
157 30
157 4
157 6
157 7
157 19
157 31
157 43
157 55
157 79
157 67
157 191
157 190
157 189
157 188
157 187
157 186
157 185
157 184
157 10
157 8
157 182
157 169
157 160
157 158
157 5
157 38
157 34
157 9
157 165
157 167
157 162
157 48
157 40
157 41
157 49
157 46
157 161
157 35
169 10
169 9
169 8
169 5
169 182
169 38
169 37
169 34
169 41
169 40
169 49
169 48
169 46
169 95
169 94
169 93
169 90
169 89
169 87
169 86
169 85
169 84
169 83
169 82
169 81
169 77
169 75
169 74
169 73
169 71
169 70
169 68
169 66
169 65
169 64
169 62
169 61
169 60
169 59
169 57
169 56
169 54
169 52
169 51
169 28
169 27
169 24
169 23
169 22
169 21
169 18
169 17
169 16
169 15
169 13
169 11
169 33
169 32
169 29
182 10
182 9
182 8
182 5
182 38
182 37
182 34
182 41
182 40
182 49
182 48
182 46
182 95
182 94
182 93
182 90
182 89
182 87
182 86
182 85
182 84
182 83
182 82
182 81
182 77
182 75
182 74
182 73
182 71
182 70
182 68
182 66
182 65
182 64
182 62
182 61
182 60
182 59
182 57
182 56
182 54
182 52
182 51
182 28
182 27
182 24
182 23
182 22
182 21
182 18
182 17
182 16
182 15
182 13
182 11
182 33
182 32
182 29
5 10
5 9
5 8
5 38
5 37
5 34
5 41
5 40
5 49
5 48
5 46
5 95
5 94
5 93
5 90
5 89
5 87
5 86
5 85
5 84
5 83
5 82
5 81
5 77
5 75
5 74
5 73
5 71
5 70
5 68
5 66
5 65
5 64
5 62
5 61
5 60
5 59
5 57
5 56
5 54
5 52
5 51
5 28
5 27
5 24
5 23
5 22
5 21
5 18
5 17
5 16
5 15
5 13
5 11
5 33
5 32
5 29
8 10
8 9
8 38
8 37
8 34
8 41
8 40
8 49
8 48
8 46
8 95
8 94
8 93
8 90
8 89
8 87
8 86
8 85
8 84
8 83
8 82
8 81
8 77
8 75
8 74
8 73
8 71
8 70
8 68
8 66
8 65
8 64
8 62
8 61
8 60
8 59
8 57
8 56
8 54
8 52
8 51
8 28
8 27
8 24
8 23
8 22
8 21
8 18
8 17
8 16
8 15
8 13
8 11
8 33
8 32
8 29
9 10
9 38
9 37
9 34
9 41
9 40
9 49
9 48
9 46
9 95
9 94
9 93
9 90
9 89
9 87
9 86
9 85
9 84
9 83
9 82
9 81
9 77
9 75
9 74
9 73
9 71
9 70
9 68
9 66
9 65
9 64
9 62
9 61
9 60
9 59
9 57
9 56
9 54
9 52
9 51
9 28
9 27
9 24
9 23
9 22
9 21
9 18
9 17
9 16
9 15
9 13
9 11
9 33
9 32
9 29
10 38
10 37
10 34
10 41
10 40
10 49
10 48
10 46
10 95
10 94
10 93
10 90
10 89
10 87
10 86
10 85
10 84
10 83
10 82
10 81
10 77
10 75
10 74
10 73
10 71
10 70
10 68
10 66
10 65
10 64
10 62
10 61
10 60
10 59
10 57
10 56
10 54
10 52
10 51
10 28
10 27
10 24
10 23
10 22
10 21
10 18
10 17
10 16
10 15
10 13
10 11
10 33
10 32
10 29
11 28
11 27
11 24
11 23
11 22
11 21
11 18
11 17
11 16
11 15
11 13
11 33
11 32
11 29
12 20
12 26
12 30
12 19
12 31
12 43
12 55
12 79
12 67
12 38
12 34
12 48
12 40
12 41
12 49
12 46
12 35
13 28
13 27
13 24
13 23
13 22
13 21
13 18
13 17
13 16
13 15
13 33
13 32
13 29
15 17
15 16
16 21
16 18
16 17
17 22
17 21
17 18
18 28
18 27
18 24
18 23
18 22
18 21
18 33
18 32
18 29
20 26
20 30
20 31
20 43
20 55
20 79
20 67
20 38
20 34
20 48
20 40
20 41
20 49
20 46
20 35
21 28
21 27
21 24
21 23
21 22
21 33
21 32
21 29
22 27
22 24
22 23
23 24
24 28
24 27
24 33
24 32
24 29
26 30
26 31
26 43
26 55
26 67
26 38
26 34
26 79
26 48
26 40
26 41
26 49
26 46
26 35
27 28
27 33
27 32
27 29
28 33
28 32
28 29
29 33
29 32
30 31
30 43
30 55
30 67
30 38
30 34
30 79
30 48
30 40
30 41
30 49
30 46
30 35
32 33
34 38
34 37
34 41
34 40
34 49
34 48
34 46
34 95
34 94
34 93
34 90
34 89
34 87
34 86
34 85
34 84
34 83
34 82
34 81
34 77
34 75
34 74
34 73
34 71
34 70
34 68
34 66
34 65
34 64
34 62
34 61
34 60
34 59
34 57
34 56
34 54
34 52
34 51
35 39
35 42
35 45
35 50
35 53
35 63
35 72
35 76
35 78
35 88
35 96
35 97
35 101
35 67
35 79
35 37
35 38
35 40
35 41
35 46
35 48
35 49
35 51
35 52
35 54
35 56
35 57
35 59
35 60
35 61
35 62
35 64
35 65
35 66
35 68
35 70
35 71
35 73
35 74
35 75
35 77
35 81
35 82
35 83
35 84
35 85
35 86
35 87
35 89
35 90
35 93
35 94
35 95
35 98
35 99
35 100
35 103
35 55
35 43
37 38
38 41
38 40
38 49
38 48
38 46
38 95
38 94
38 93
38 90
38 89
38 87
38 86
38 85
38 84
38 83
38 82
38 81
38 77
38 75
38 74
38 73
38 71
38 70
38 68
38 66
38 65
38 64
38 62
38 61
38 60
38 59
38 57
38 56
38 54
38 52
38 51
39 42
39 45
39 50
39 53
39 63
39 72
39 76
39 78
39 88
39 96
39 97
39 101
39 67
39 79
39 40
39 41
39 46
39 48
39 49
39 51
39 52
39 54
39 56
39 57
39 59
39 60
39 61
39 62
39 64
39 65
39 66
39 68
39 70
39 71
39 73
39 74
39 75
39 77
39 81
39 82
39 83
39 84
39 85
39 86
39 87
39 89
39 90
39 93
39 94
39 95
39 98
39 99
39 100
39 103
40 41
40 49
40 48
40 46
40 95
40 94
40 93
40 90
40 89
40 87
40 86
40 85
40 84
40 83
40 82
40 81
40 77
40 75
40 74
40 73
40 71
40 70
40 68
40 66
40 65
40 64
40 62
40 61
40 60
40 59
40 57
40 56
40 54
40 52
40 51
41 49
41 48
41 46
41 95
41 94
41 93
41 90
41 89
41 87
41 86
41 85
41 84
41 83
41 82
41 81
41 77
41 75
41 74
41 73
41 71
41 70
41 68
41 66
41 65
41 64
41 62
41 61
41 60
41 59
41 57
41 56
41 54
41 52
41 51
42 45
42 50
42 53
42 63
42 72
42 76
42 78
42 88
42 96
42 97
42 101
42 67
42 79
42 46
42 48
42 49
42 51
42 52
42 54
42 56
42 57
42 59
42 60
42 61
42 62
42 64
42 65
42 66
42 68
42 70
42 71
42 73
42 74
42 75
42 77
42 81
42 82
42 83
42 84
42 85
42 86
42 87
42 89
42 90
42 93
42 94
42 95
42 98
42 99
42 100
42 103
44 92
44 55
44 79
44 67
44 103
44 100
44 99
44 98
44 49
44 48
44 46
44 95
44 94
44 93
44 90
44 89
44 87
44 86
44 85
44 84
44 83
44 82
44 81
44 77
44 75
44 74
44 73
44 71
44 70
44 68
44 66
44 65
44 64
44 62
44 61
44 60
44 59
44 57
44 56
44 54
44 52
44 51
45 50
45 53
45 63
45 72
45 76
45 78
45 88
45 96
45 97
45 101
45 67
45 79
45 46
45 48
45 49
45 51
45 52
45 54
45 56
45 57
45 59
45 60
45 61
45 62
45 64
45 65
45 66
45 68
45 70
45 71
45 73
45 74
45 75
45 77
45 81
45 82
45 83
45 84
45 85
45 86
45 87
45 89
45 90
45 93
45 94
45 95
45 98
45 99
45 100
45 103
46 49
46 48
46 95
46 94
46 93
46 90
46 89
46 87
46 86
46 85
46 84
46 83
46 82
46 81
46 77
46 51
48 49
48 95
48 94
48 93
48 90
48 89
48 87
48 86
48 85
48 84
48 83
48 82
48 81
48 77
48 52
48 51
49 95
49 94
49 93
49 90
49 89
49 87
49 86
49 85
49 84
49 83
49 82
49 81
49 77
49 54
49 52
49 51
50 53
50 63
50 72
50 76
50 78
50 88
50 96
50 97
50 101
50 67
50 79
50 51
50 52
50 54
50 56
50 57
50 59
50 60
50 61
50 62
50 64
50 65
50 66
50 68
50 70
50 71
50 73
50 74
50 75
50 77
50 81
50 82
50 83
50 84
50 85
50 86
50 87
50 89
50 90
50 93
50 94
50 95
50 98
50 99
50 100
50 103
51 59
51 57
51 56
51 54
51 52
52 60
52 59
52 57
52 56
52 54
53 63
53 72
53 76
53 78
53 88
53 96
53 97
53 101
53 67
53 79
53 54
53 56
53 57
53 59
53 60
53 61
53 62
53 64
53 65
53 66
53 68
53 70
53 71
53 73
53 74
53 75
53 77
53 81
53 82
53 83
53 84
53 85
53 86
53 87
53 89
53 90
53 93
53 94
53 95
53 98
53 99
53 100
53 103
54 56
56 57
57 62
57 61
57 60
57 59
59 64
59 62
59 61
59 60
60 65
60 64
60 62
60 61
61 66
61 65
61 64
61 62
62 75
62 74
62 73
62 71
62 70
62 68
62 66
62 65
62 64
63 72
63 76
63 78
63 88
63 96
63 97
63 101
63 67
63 79
63 64
63 65
63 66
63 68
63 70
63 71
63 73
63 74
63 75
63 77
63 81
63 82
63 83
63 84
63 85
63 86
63 87
63 89
63 90
63 93
63 94
63 95
63 98
63 99
63 100
63 103
64 68
64 66
64 65
65 74
65 73
65 71
65 70
65 68
65 66
66 71
66 70
66 68
68 73
68 71
68 70
70 75
70 74
70 73
70 71
71 75
71 74
71 73
72 76
72 78
72 88
72 96
72 97
72 101
72 79
72 73
72 74
72 75
72 77
72 81
72 82
72 83
72 84
72 85
72 86
72 87
72 89
72 90
72 93
72 94
72 95
72 98
72 99
72 100
72 103
73 75
73 74
74 75
76 78
76 88
76 96
76 97
76 101
76 79
76 77
76 81
76 82
76 83
76 84
76 85
76 86
76 87
76 89
76 90
76 93
76 94
76 95
76 98
76 99
76 100
76 103
77 82
77 81
78 88
78 96
78 97
78 101
78 79
78 81
78 82
78 83
78 84
78 85
78 86
78 87
78 89
78 90
78 93
78 94
78 95
78 98
78 99
78 100
78 103
81 83
81 82
82 84
82 83
83 87
83 86
83 85
83 84
84 89
84 87
84 86
84 85
85 86
86 95
86 94
86 93
86 90
86 89
86 87
87 94
87 93
87 90
87 89
88 96
88 97
88 101
88 89
88 90
88 93
88 94
88 95
88 98
88 99
88 100
88 103
89 90
90 93
93 95
93 94
94 95
96 97
96 101
96 98
96 99
96 100
96 103
97 101
97 98
97 99
97 100
97 103
98 103
98 100
98 99
99 103
99 100
100 103
101 103
115 148
115 126
115 159
126 148
126 159
137 170
137 47
137 110
137 125
137 132
137 138
137 142
137 147
137 156
137 158
137 160
137 161
137 162
137 163
137 164
137 165
137 166
137 167
137 168
137 171
137 172
137 173
137 174
137 175
137 176
137 177
137 178
137 179
137 180
137 183
137 184
137 185
137 186
137 187
137 188
137 189
137 190
137 191
137 67
137 79
137 36
137 109
137 121
137 133
137 145
137 169
137 182
137 5
137 8
137 9
137 10
137 11
137 13
137 15
137 16
137 17
137 18
137 21
137 22
137 23
137 24
137 27
137 28
137 29
137 32
137 33
137 34
137 37
137 38
137 40
137 41
137 46
137 48
137 49
137 51
137 52
137 54
137 56
137 57
137 59
137 60
137 61
137 62
137 64
137 65
137 66
137 68
137 70
137 71
137 73
137 74
137 75
137 77
137 81
137 82
137 83
137 84
137 85
137 86
137 87
137 89
137 90
137 93
137 94
137 95
137 98
137 99
137 100
137 103
137 148
137 159
137 181
137 3
137 14
137 25
137 58
137 69
137 80
137 91
137 102
137 105
137 106
137 107
137 108
137 111
137 112
137 113
137 114
137 116
137 117
137 118
137 119
137 120
137 122
137 123
137 124
137 127
137 128
137 129
137 130
137 131
137 134
137 135
137 136
137 139
137 140
137 141
137 143
137 144
137 146
137 149
137 150
137 151
137 152
137 153
137 154
137 155
137 55
137 43
137 31
137 19
137 7
137 6
137 4
148 159
170 47
170 110
170 125
170 132
170 138
170 142
170 147
170 156
170 158
170 160
170 161
170 162
170 163
170 164
170 165
170 166
170 167
170 168
170 171
170 172
170 173
170 174
170 175
170 176
170 177
170 178
170 179
170 180
170 183
170 184
170 185
170 186
170 187
170 188
170 189
170 190
170 191
170 67
170 79
170 36
170 109
170 121
170 133
170 145
170 169
170 182
170 5
170 8
170 9
170 10
170 11
170 13
170 15
170 16
170 17
170 18
170 21
170 22
170 23
170 24
170 27
170 28
170 29
170 32
170 33
170 34
170 37
170 38
170 40
170 41
170 46
170 48
170 49
170 51
170 52
170 54
170 56
170 57
170 59
170 60
170 61
170 62
170 64
170 65
170 66
170 68
170 70
170 71
170 73
170 74
170 75
170 77
170 81
170 82
170 83
170 84
170 85
170 86
170 87
170 89
170 90
170 93
170 94
170 95
170 98
170 99
170 100
170 103
170 181
170 3
170 14
170 25
170 58
170 69
170 80
170 91
170 102
170 105
170 106
170 107
170 108
170 111
170 112
170 113
170 114
170 116
170 117
170 118
170 119
170 120
170 122
170 123
170 124
170 127
170 128
170 129
170 130
170 131
170 134
170 135
170 136
170 139
170 140
170 141
170 143
170 144
170 146
170 149
170 150
170 151
170 152
170 153
170 154
170 155
170 55
170 43
170 31
170 19
170 7
170 6
170 4
181 102
181 91
181 80
181 69
181 58
181 25
181 14
181 3
181 134
181 131
181 130
181 129
181 128
181 127
181 136
181 135
181 140
181 139
181 105
181 108
181 107
181 106
181 124
181 123
181 122
181 120
181 119
181 118
181 117
181 116
181 114
181 113
181 112
181 111
3 102
3 91
3 80
3 69
3 58
3 25
3 14
3 134
3 131
3 130
3 129
3 128
3 127
3 136
3 135
3 140
3 139
3 105
3 108
3 107
3 106
3 124
3 123
3 122
3 120
3 119
3 118
3 117
3 116
3 114
3 113
3 112
3 111
14 25
25 102
25 91
25 80
25 69
25 58
25 134
25 131
25 130
25 129
25 128
25 127
25 136
25 135
25 140
25 139
25 105
25 108
25 107
25 106
25 124
25 123
25 122
25 120
25 119
25 118
25 117
25 116
25 114
25 113
25 112
25 111
47 10
47 9
47 8
47 5
47 182
47 169
47 145
47 133
47 121
47 109
47 67
47 79
47 191
47 190
47 189
47 188
47 187
47 186
47 185
47 184
47 163
47 160
47 138
47 38
47 37
47 34
47 165
47 147
47 158
47 176
47 155
47 154
47 153
47 152
47 151
47 161
47 41
47 40
47 125
47 49
47 48
47 46
47 174
47 95
47 94
47 93
47 90
47 89
47 87
47 86
47 85
47 84
47 83
47 82
47 81
47 77
47 175
47 75
47 74
47 73
47 71
47 70
47 68
47 66
47 65
47 64
47 62
47 61
47 60
47 59
47 57
47 56
47 54
47 52
47 51
47 28
47 27
47 24
47 23
47 22
47 172
47 171
47 21
47 18
47 17
47 16
47 15
47 13
47 11
47 173
47 33
47 32
47 29
58 91
58 80
58 69
69 102
69 91
69 80
69 134
69 131
69 130
69 129
69 128
69 127
69 136
69 135
69 140
69 139
69 105
69 108
69 107
69 106
69 124
69 123
69 122
69 120
69 119
69 118
69 117
69 116
69 114
69 113
69 112
69 111
80 102
80 91
80 134
80 131
80 130
80 129
80 128
80 127
80 136
80 135
80 140
80 139
80 105
80 108
80 107
80 106
80 124
80 123
80 122
80 120
80 119
80 118
80 117
80 116
80 114
80 113
80 112
80 111
91 102
91 134
91 131
91 130
91 129
91 128
91 127
91 136
91 135
91 140
91 139
91 105
91 108
91 107
91 106
91 124
91 123
91 122
91 120
91 119
91 118
91 117
91 116
91 114
91 113
91 112
91 111
102 134
102 131
102 130
102 129
102 128
102 127
102 136
102 135
102 140
102 139
102 105
102 108
102 107
102 106
102 124
102 123
102 122
102 120
102 119
102 118
102 117
102 116
102 114
102 113
102 112
102 111
105 108
105 107
105 106
105 124
105 123
105 122
105 120
105 119
105 118
105 117
105 116
105 114
105 113
105 112
105 111
106 108
106 107
106 120
106 119
106 118
106 117
106 116
107 108
107 124
107 123
107 122
107 120
107 119
107 118
107 117
107 116
107 113
107 112
107 111
108 124
108 123
108 122
108 120
108 119
108 118
108 117
108 116
110 164
110 165
110 5
110 10
110 8
110 182
110 169
110 145
110 121
110 67
110 160
110 158
110 156
110 38
110 34
110 9
110 133
110 79
110 191
110 190
110 189
110 188
110 187
110 186
110 185
110 184
110 177
110 150
110 149
110 146
110 144
110 143
110 141
110 142
110 162
110 134
110 168
110 131
110 130
110 129
110 128
110 127
110 136
110 135
110 179
110 140
110 139
110 132
110 167
110 180
110 124
110 123
110 122
110 120
110 119
110 118
110 117
110 116
110 183
110 114
110 113
110 112
110 111
110 166
110 103
110 100
110 99
110 98
110 178
111 112
112 114
112 113
113 114
116 117
117 124
117 123
117 122
117 120
117 119
117 118
118 119
119 124
119 123
119 122
119 120
120 123
120 122
122 124
122 123
123 124
125 165
125 40
125 163
125 10
125 8
125 182
125 169
125 145
125 67
125 161
125 160
125 158
125 147
125 38
125 138
125 34
125 5
125 41
125 133
125 79
125 191
125 190
125 189
125 188
125 187
125 186
125 185
125 184
125 49
125 48
125 46
125 174
125 95
125 94
125 93
125 90
125 89
125 87
125 86
125 85
125 84
125 83
125 82
125 81
125 77
125 175
125 75
125 74
125 73
125 71
125 70
125 68
125 66
125 65
125 64
125 62
125 61
125 60
125 59
125 57
125 56
125 54
125 52
125 51
125 9
127 134
127 131
127 130
127 129
127 128
127 136
127 135
127 140
127 139
128 129
129 130
130 131
131 134
131 136
131 135
131 140
131 139
132 167
132 34
132 165
132 164
132 10
132 8
132 182
132 169
132 145
132 67
132 142
132 162
132 158
132 156
132 38
132 5
132 133
132 79
132 191
132 190
132 189
132 188
132 187
132 186
132 185
132 184
132 180
132 183
132 9
134 136
134 135
134 140
134 139
135 136
136 139
138 160
138 163
138 10
138 8
138 182
138 169
138 145
138 67
138 5
138 38
138 34
138 9
138 79
138 191
138 190
138 189
138 188
138 187
138 186
138 185
138 184
138 147
138 158
138 161
138 41
138 40
138 165
138 49
138 48
138 46
138 174
138 95
138 94
138 93
138 90
138 89
138 87
138 86
138 85
138 84
138 83
138 82
138 81
138 77
138 175
138 75
138 74
138 73
138 71
138 70
138 68
138 66
138 65
138 64
138 62
138 61
138 60
138 59
138 57
138 56
138 54
138 52
138 51
139 140
141 150
141 149
141 146
141 144
141 143
142 34
142 165
142 164
142 10
142 8
142 182
142 169
142 145
142 67
142 162
142 158
142 156
142 38
142 5
142 79
142 191
142 190
142 189
142 188
142 187
142 186
142 185
142 184
142 168
142 179
142 9
142 167
142 180
142 183
143 144
144 150
144 149
144 146
146 150
146 149
147 10
147 8
147 182
147 169
147 67
147 160
147 158
147 165
147 38
147 34
147 5
147 79
147 191
147 190
147 189
147 188
147 187
147 186
147 185
147 184
147 176
147 155
147 154
147 153
147 152
147 151
147 40
147 163
147 161
147 41
147 49
147 48
147 46
147 174
147 95
147 94
147 93
147 90
147 89
147 87
147 86
147 85
147 84
147 83
147 82
147 81
147 77
147 9
147 175
147 75
147 74
147 73
147 71
147 70
147 68
147 66
147 65
147 64
147 62
147 61
147 60
147 59
147 57
147 56
147 54
147 52
147 51
149 150
151 155
151 154
151 153
151 152
152 153
153 155
153 154
154 155
156 164
156 5
156 10
156 8
156 182
156 169
156 67
156 160
156 158
156 38
156 34
156 9
156 165
156 79
156 191
156 190
156 189
156 188
156 187
156 186
156 185
156 184
156 177
156 162
156 168
156 179
156 167
156 180
156 183
158 8
158 182
158 169
158 67
158 160
158 10
158 165
158 38
158 34
158 5
158 79
158 191
158 190
158 189
158 188
158 187
158 186
158 185
158 184
158 9
158 176
158 164
158 177
158 162
158 168
158 179
158 167
158 180
158 183
158 40
158 163
158 161
158 41
158 49
158 48
158 46
158 174
158 95
158 94
158 93
158 90
158 89
158 87
158 86
158 85
158 84
158 83
158 82
158 81
158 77
158 175
158 75
158 74
158 73
158 71
158 70
158 68
158 66
158 65
158 64
158 62
158 61
158 60
158 59
158 57
158 56
158 54
158 52
158 51
160 163
160 10
160 8
160 182
160 169
160 67
160 5
160 38
160 34
160 9
160 79
160 191
160 190
160 189
160 188
160 187
160 186
160 185
160 184
160 165
160 176
160 164
160 161
160 41
160 40
160 49
160 48
160 46
160 174
160 95
160 94
160 93
160 90
160 89
160 87
160 86
160 85
160 84
160 83
160 82
160 81
160 77
160 175
160 75
160 74
160 73
160 71
160 70
160 68
160 66
160 65
160 64
160 62
160 61
160 60
160 59
160 57
160 56
160 54
160 52
160 51
161 163
161 10
161 8
161 182
161 169
161 67
161 40
161 165
161 5
161 38
161 34
161 41
161 79
161 191
161 190
161 189
161 188
161 187
161 186
161 185
161 184
161 9
161 49
161 48
161 46
161 174
161 95
161 94
161 93
161 90
161 89
161 87
161 86
161 85
161 84
161 83
161 82
161 81
161 77
161 175
161 75
161 74
161 73
161 71
161 70
161 68
161 66
161 65
161 64
161 62
161 61
161 60
161 59
161 57
161 56
161 54
161 52
161 51
162 34
162 165
162 164
162 10
162 8
162 182
162 169
162 67
162 38
162 5
162 79
162 191
162 190
162 189
162 188
162 187
162 186
162 185
162 184
162 9
162 168
162 179
162 167
162 180
162 183
163 5
163 10
163 8
163 182
163 169
163 67
163 9
163 79
163 191
163 190
163 189
163 188
163 187
163 186
163 185
163 184
163 38
163 37
163 34
163 165
163 41
163 40
163 49
163 48
163 46
163 175
163 75
163 74
163 73
163 71
163 70
163 68
163 66
163 65
163 64
163 62
163 61
163 60
163 59
163 57
163 56
163 54
163 52
163 51
163 28
163 27
163 24
163 23
163 22
163 172
163 171
163 21
163 18
163 17
163 16
163 15
163 13
163 11
163 173
163 33
163 32
163 29
164 5
164 165
164 10
164 8
164 182
164 169
164 67
164 38
164 34
164 9
164 79
164 191
164 190
164 189
164 188
164 187
164 186
164 185
164 184
164 177
164 168
164 179
164 167
164 183
164 166
164 103
164 100
164 99
164 98
164 178
165 5
165 10
165 8
165 182
165 169
165 67
165 38
165 34
165 9
165 79
165 191
165 190
165 189
165 188
165 187
165 186
165 185
165 184
165 176
165 177
165 168
165 179
165 167
165 180
165 183
165 41
165 40
165 49
165 48
165 46
165 174
165 95
165 94
165 93
165 90
165 89
165 87
165 86
165 85
165 84
165 83
165 82
165 81
165 77
165 175
165 75
165 74
165 73
165 71
165 70
165 68
165 66
165 65
165 64
165 62
165 61
165 60
165 59
165 57
165 56
165 54
165 52
165 51
166 103
166 99
166 98
166 67
166 79
166 191
166 190
166 189
166 188
166 187
166 186
166 185
166 184
166 178
167 9
167 34
167 10
167 8
167 182
167 169
167 67
167 38
167 5
167 79
167 191
167 190
167 189
167 188
167 187
167 186
167 185
167 184
167 180
167 183
168 5
168 34
168 10
168 8
168 182
168 169
168 67
168 38
168 9
168 79
168 191
168 190
168 189
168 188
168 187
168 186
168 185
168 184
168 179
171 28
171 27
171 24
171 23
171 22
171 172
171 17
171 5
171 16
171 18
171 21
171 11
171 10
171 8
171 182
171 67
171 9
171 79
171 191
171 190
171 189
171 188
171 187
171 186
171 185
171 184
171 173
171 33
171 32
171 29
171 13
172 28
172 27
172 24
172 23
172 22
172 5
172 17
172 16
172 18
172 13
172 11
172 10
172 8
172 182
172 67
172 9
172 79
172 191
172 190
172 189
172 188
172 187
172 186
172 185
172 184
172 173
172 33
172 32
172 29
172 21
173 32
173 29
173 5
173 28
173 27
173 24
173 21
173 18
173 13
173 33
173 10
173 8
173 182
173 67
173 9
173 79
173 191
173 190
173 189
173 188
173 187
173 186
173 185
173 184
173 11
174 94
174 93
174 41
174 5
174 86
174 48
174 95
174 10
174 8
174 182
174 67
174 49
174 46
174 38
174 34
174 9
174 79
174 191
174 190
174 189
174 188
174 187
174 186
174 185
174 184
174 40
175 74
175 73
175 71
175 70
175 41
175 5
175 62
175 75
175 10
175 8
175 182
175 67
175 38
175 34
175 9
175 79
175 191
175 190
175 189
175 188
175 187
175 186
175 185
175 184
175 40
176 5
176 10
176 8
176 182
176 67
176 38
176 34
176 9
176 79
176 191
176 190
176 189
176 188
176 187
176 186
176 185
176 184
177 5
177 10
177 8
177 182
177 67
177 38
177 34
177 9
177 79
177 191
177 190
177 189
177 188
177 187
177 186
177 185
177 184
178 99
178 67
178 79
178 191
178 190
178 189
178 188
178 187
178 186
178 185
178 184
178 98
179 5
179 34
179 10
179 8
179 182
179 67
179 38
179 9
179 79
179 191
179 190
179 189
179 188
179 187
179 186
179 185
179 184
180 5
180 34
180 10
180 8
180 182
180 67
180 38
180 9
180 79
180 191
180 190
180 189
180 188
180 187
180 186
180 185
180 184
183 5
183 34
183 10
183 8
183 67
183 38
183 9
183 79
183 191
183 190
183 189
183 188
183 187
183 186
183 185
183 184
184 10
184 9
184 8
184 5
184 79
184 67
184 191
184 190
184 189
184 188
184 187
184 186
184 185
184 38
184 37
184 34
184 103
184 100
184 99
184 98
184 41
184 40
184 49
184 48
184 46
184 95
184 94
184 93
184 90
184 89
184 87
184 86
184 85
184 84
184 83
184 82
184 81
184 77
184 75
184 74
184 73
184 71
184 70
184 68
184 66
184 65
184 64
184 62
184 61
184 60
184 59
184 57
184 56
184 54
184 52
184 51
184 28
184 27
184 24
184 23
184 22
184 21
184 18
184 17
184 16
184 15
184 13
184 11
184 33
184 32
184 29
184 4
184 6
184 7
184 19
184 31
184 43
184 55
185 10
185 9
185 8
185 5
185 79
185 67
185 191
185 190
185 189
185 188
185 187
185 186
185 38
185 37
185 34
185 103
185 100
185 99
185 98
185 41
185 40
185 49
185 48
185 46
185 95
185 94
185 93
185 90
185 89
185 87
185 86
185 85
185 84
185 83
185 82
185 81
185 77
185 75
185 74
185 73
185 71
185 70
185 68
185 66
185 65
185 64
185 62
185 61
185 60
185 59
185 57
185 56
185 54
185 52
185 51
185 28
185 27
185 24
185 23
185 22
185 21
185 18
185 17
185 16
185 15
185 13
185 11
185 33
185 32
185 29
185 4
185 6
185 7
185 19
185 31
185 43
185 55
186 10
186 9
186 8
186 5
186 79
186 67
186 191
186 190
186 189
186 188
186 187
186 38
186 37
186 34
186 103
186 100
186 99
186 98
186 41
186 40
186 49
186 48
186 46
186 95
186 94
186 93
186 90
186 89
186 87
186 86
186 85
186 84
186 83
186 82
186 81
186 77
186 75
186 74
186 73
186 71
186 70
186 68
186 66
186 65
186 64
186 62
186 61
186 60
186 59
186 57
186 56
186 54
186 52
186 51
186 28
186 27
186 24
186 23
186 22
186 21
186 18
186 17
186 16
186 15
186 13
186 11
186 33
186 32
186 29
186 4
186 6
186 7
186 19
186 31
186 43
186 55
187 10
187 9
187 8
187 5
187 79
187 67
187 191
187 190
187 189
187 188
187 38
187 37
187 34
187 103
187 100
187 99
187 98
187 41
187 40
187 49
187 48
187 46
187 95
187 94
187 93
187 90
187 89
187 87
187 86
187 85
187 84
187 83
187 82
187 81
187 77
187 75
187 74
187 73
187 71
187 70
187 68
187 66
187 65
187 64
187 62
187 61
187 60
187 59
187 57
187 56
187 54
187 52
187 51
187 28
187 27
187 24
187 23
187 22
187 21
187 18
187 17
187 16
187 15
187 13
187 11
187 33
187 32
187 29
187 4
187 6
187 7
187 19
187 31
187 43
187 55
188 10
188 9
188 8
188 5
188 79
188 67
188 191
188 190
188 189
188 38
188 37
188 34
188 103
188 100
188 99
188 98
188 41
188 40
188 49
188 48
188 46
188 95
188 94
188 93
188 90
188 89
188 87
188 86
188 85
188 84
188 83
188 82
188 81
188 77
188 75
188 74
188 73
188 71
188 70
188 68
188 66
188 65
188 64
188 62
188 61
188 60
188 59
188 57
188 56
188 54
188 52
188 51
188 28
188 27
188 24
188 23
188 22
188 21
188 18
188 17
188 16
188 15
188 13
188 11
188 33
188 32
188 29
188 4
188 6
188 7
188 19
188 31
188 43
188 55
189 10
189 9
189 8
189 5
189 79
189 67
189 191
189 190
189 38
189 37
189 34
189 103
189 100
189 99
189 98
189 41
189 40
189 49
189 48
189 46
189 95
189 94
189 93
189 90
189 89
189 87
189 86
189 85
189 84
189 83
189 82
189 81
189 77
189 75
189 74
189 73
189 71
189 70
189 68
189 66
189 65
189 64
189 62
189 61
189 60
189 59
189 57
189 56
189 54
189 52
189 51
189 28
189 27
189 24
189 23
189 22
189 21
189 18
189 17
189 16
189 15
189 13
189 11
189 33
189 32
189 29
189 4
189 6
189 7
189 19
189 31
189 43
189 55
190 10
190 9
190 8
190 5
190 79
190 67
190 191
190 38
190 37
190 34
190 103
190 100
190 99
190 98
190 41
190 40
190 49
190 48
190 46
190 95
190 94
190 93
190 90
190 89
190 87
190 86
190 85
190 84
190 83
190 82
190 81
190 77
190 75
190 74
190 73
190 71
190 70
190 68
190 66
190 65
190 64
190 62
190 61
190 60
190 59
190 57
190 56
190 54
190 52
190 51
190 28
190 27
190 24
190 23
190 22
190 21
190 18
190 17
190 16
190 15
190 13
190 11
190 33
190 32
190 29
191 10
191 9
191 8
191 5
191 79
191 67
191 38
191 37
191 34
191 103
191 100
191 99
191 98
191 41
191 40
191 49
191 48
191 46
191 95
191 94
191 93
191 90
191 89
191 87
191 86
191 85
191 84
191 83
191 82
191 81
191 77
191 75
191 74
191 73
191 71
191 70
191 68
191 66
191 65
191 64
191 62
191 61
191 60
191 59
191 57
191 56
191 54
191 52
191 51
191 28
191 27
191 24
191 23
191 22
191 21
191 18
191 17
191 16
191 15
191 13
191 11
191 33
191 32
191 29
4 55
4 43
4 31
4 19
4 7
4 6
6 55
6 43
6 31
6 19
6 7
